NAME : tsp45_14.224.tour
COMMENT : Length = 224
COMMENT : Found by LKH [Keld Helsgaun]
TYPE : TOUR
DIMENSION : 45
TOUR_SECTION
1
8
18
39
21
16
11
42
7
17
15
44
12
35
6
34
23
5
19
43
41
25
31
14
22
3
30
2
29
28
24
26
36
13
20
40
33
27
37
10
9
32
45
4
38
-1
EOF
